77
125
100	5
99	3
97	3
96	2
95	2
93	2
92	5
91	6
90	2
89	2
88	1
87	3
86	3
84	2
83	4
82	2
81	3
80	4
79	1
78	2
77	4
76	2
73	1
72	4
71	3
70	1
69	2
68	1
67	1
66	1
65	1
63	1
62	1
61	1
60	3
59	3
58	4
57	2
56	2
55	3
53	2
52	4
51	4
50	2
49	1
47	5
46	5
43	1
42	2
41	2
40	5
39	2
38	3
37	3
36	1
35	4
34	1
33	2
32	1
31	3
29	2
28	3
27	2
26	6
25	3
24	2
23	3
22	1
21	3
20	3
19	3
18	3
17	1
16	3
15	5
13	1
12	5
